p cnf 28 131
-1 -2 0
-1 -3 0
-1 -4 0
-2 -3 0
-2 -4 0
-3 -4 0
1 2 3 4 0
-5 -6 0
-5 -7 0
-5 -8 0
-5 -9 0
-6 -7 0
-6 -8 0
-6 -9 0
-7 -8 0
-7 -9 0
-8 -9 0
5 6 7 8 9 0
-1 -5 0
-1 -10 0
-1 -11 0
-1 -12 0
-5 -10 0
-5 -11 0
-5 -12 0
-10 -11 0
-10 -12 0
-11 -12 0
1 5 10 11 12 0
-6 -13 0
-6 -14 0
-6 -15 0
-6 -16 0
-6 -17 0
-13 -14 0
-13 -15 0
-13 -16 0
-13 -17 0
-14 -15 0
-14 -16 0
-14 -17 0
-15 -16 0
-15 -17 0
-16 -17 0
6 13 14 15 16 17 0
-7 -10 0
-7 -13 0
-7 -18 0
-7 -19 0
-7 -20 0
-10 -13 0
-10 -18 0
-10 -19 0
-10 -20 0
-13 -18 0
-13 -19 0
-13 -20 0
-18 -19 0
-18 -20 0
-19 -20 0
7 10 13 18 19 20 0
-11 -18 0
-11 -21 0
-11 -22 0
-18 -21 0
-18 -22 0
-21 -22 0
11 18 21 22 0
-2 -8 0
-2 -12 0
-2 -14 0
-2 -23 0
-2 -24 0
-2 -25 0
-2 -26 0
-8 -12 0
-8 -14 0
-8 -23 0
-8 -24 0
-8 -25 0
-8 -26 0
-12 -14 0
-12 -23 0
-12 -24 0
-12 -25 0
-12 -26 0
-14 -23 0
-14 -24 0
-14 -25 0
-14 -26 0
-23 -24 0
-23 -25 0
-23 -26 0
-24 -25 0
-24 -26 0
-25 -26 0
2 8 12 14 23 24 25 26 0
-15 -21 0
-15 -23 0
-15 -27 0
-21 -23 0
-21 -27 0
-23 -27 0
15 21 23 27 0
-3 -19 0
-3 -22 0
-3 -28 0
-19 -22 0
-19 -28 0
-22 -28 0
3 19 22 28 0
-4 -24 0
4 24 0
-16 -25 0
16 25 0
-9 -17 0
-9 -20 0
-9 -26 0
-9 -27 0
-9 -28 0
-17 -20 0
-17 -26 0
-17 -27 0
-17 -28 0
-20 -26 0
-20 -27 0
-20 -28 0
-26 -27 0
-26 -28 0
-27 -28 0
9 17 20 26 27 28 0
